12 66
1 2 5
1 3 5
1 4 1
1 5 2
1 6 1
1 7 4
1 8 5
1 9 2
1 10 1
1 11 5
1 12 2
2 3 1
2 4 2
2 5 2
2 6 1
2 7 5
2 8 5
2 9 1
2 10 1
2 11 4
2 12 5
3 4 4
3 5 2
3 6 3
3 7 5
3 8 4
3 9 2
3 10 5
3 11 1
3 12 5
4 5 3
4 6 3
4 7 5
4 8 3
4 9 4
4 10 5
4 11 2
4 12 5
5 6 3
5 7 2
5 8 2
5 9 5
5 10 1
5 11 3
5 12 5
6 7 5
6 8 5
6 9 3
6 10 3
6 11 5
6 12 5
7 8 3
7 9 1
7 10 2
7 11 1
7 12 2
8 9 4
8 10 3
8 11 5
8 12 5
9 10 4
9 11 1
9 12 2
10 11 2
10 12 5
11 12 5
